(set-logic QF_S)
(declare-fun var0 () String)
(declare-fun var1 () Int)
(declare-fun var2 () Bool)
(declare-fun var3 () String)
(declare-fun var4 () Int)
(declare-fun var5 () Bool)
(declare-fun var6 () String)
(declare-fun var7 () Int)
(declare-fun var8 () Bool)
(assert (str.suffixof (str.replace (str.substr "ZM\\@l]!wA," var7 var1) (str.at var6 0) (str.at var6 var4)) (str.substr var3 var4 var7)))
(assert (<= (str.indexof "C3k`r\\RV6i" var6 var7) (str.len var3)))
(assert (str.suffixof (str.substr var0 8 3) (str.substr var6 var1 var7)))
(assert (str.contains (str.substr var0 var4 9) (str.at var6 var7)))
(check-sat)